\* Problem: Unknown *\

Maximize
 obj: + xp_0_0 + xp_0_1 + xp_0_2 + xp_0_3 + xp_0_4 + xp_0_5 + xp_1_0
 + xp_1_1 + xp_1_2 + xp_2_0 + xp_2_1 + xp_2_2 + xp_2_3 + xp_2_4 + xp_3_0
 + xp_3_1 + xp_3_2 + xp_4_0 + xp_5_0 + xp_5_1 + xp_5_2 + xp_6_0 + xp_6_1
 + xp_7_0 + xp_7_1 + xp_8_0 + xp_8_1 + xp_9_0 + xp_10_0 + xp_11_0
 + xp_11_1 + xp_11_2 + xp_11_3 + xp_11_4 + xp_12_0 + xp_13_0 + xp_13_1
 + xp_14_0 + xp_14_1 + xp_15_0 + xp_16_0 + xp_16_1 + xp_17_0 + xp_17_1
 + xp_17_2 + xp_17_3 + xp_17_4 + xp_17_5 + xp_18_0 + xp_18_1 + xp_18_2
 + xp_18_3 + xp_19_0 + xp_19_1 + xp_19_2 + xp_19_3 + xp_20_0 + xp_20_1
 + xp_20_2 + xp_21_0 + xp_21_1 + xp_21_2 + xp_21_3 + xp_21_4 + xp_22_0
 + xp_22_1 + xp_22_2 + xp_22_3 + xp_23_0 + xp_23_1 + xp_23_2 + xp_23_3
 + xp_23_4 + xp_23_5

Subject To
 r_1: 0 xp_0_0 <= 26.1838588989845
 r_2: + xp_18_3 + xp_5_2 + xp_2_2 <= 25.8704453441296
 r_3: + xp_23_4 + xp_21_3 + xp_18_2 + xp_6_1 <= 26.5090230242688
 r_4: + xp_17_1 + xp_15_0 <= 27.1553784860558
 r_5: + xp_18_0 <= 25.5951933909125
 r_6: + xp_18_1 <= 26.6425279789335
 r_7: 0 xp_0_0 <= 26.1838588989845
 r_8: + xp_22_2 + xp_11_2 + xp_5_1 + xp_3_2 + xp_2_3 <= 25.8704453441296
 r_9: + xp_23_2 + xp_11_1 + xp_3_1 <= 26.5090230242688
 r_10: + xp_17_5 + xp_3_0 <= 27.1553784860558
 r_11: + xp_18_1 + xp_11_3 <= 25.5951933909125
 r_12: + xp_11_0 <= 26.6425279789335
 r_13: + xp_11_4 <= 27.941473259334
 r_14: + xp_21_4 + xp_21_1 + xp_14_0 + xp_0_2 <= 25.8704453441296
 r_15: + xp_21_0 + xp_19_1 <= 26.5090230242688
 r_16: + xp_23_5 + xp_22_1 + xp_0_4 + xp_0_3 + xp_0_1
 <= 27.3778920308483
 r_17: + xp_0_0 <= 25.5951933909125
 r_18: + xp_21_3 + xp_4_0 <= 26.1838588989845
 r_19: + xp_19_0 <= 26.1838588989845
 r_20: + xp_21_2 + xp_19_3 + xp_19_2 + xp_14_1 + xp_0_5
 <= 27.941473259334
 r_21: + xp_20_1 <= 25.8704453441296
 r_22: + xp_21_1 + xp_7_1 <= 26.5090230242688
 r_23: + xp_22_3 + xp_22_2 + xp_3_2 <= 27.3778920308483
 r_24: + xp_23_3 + xp_21_4 + xp_17_3 + xp_0_5 <= 26.2815479528884
 r_25: 0 xp_0_0 <= 27.941473259334
 r_26: + xp_18_3 + xp_0_2 <= 25.5951933909125
 r_27: + xp_11_4 + xp_11_2 <= 25.8704453441296
 r_28: + xp_19_3 <= 25.8704453441296
 r_29: + xp_20_2 <= 26.5090230242688
 r_30: + xp_2_0 <= 26.5090230242688
 r_31: + xp_23_4 + xp_23_2 + xp_18_2 + xp_6_1 + xp_3_1 + xp_2_4
 <= 26.2815479528884
 r_32: + xp_2_1 <= 27.941473259334
 r_33: + xp_11_1 + xp_2_2 <= 26.5090230242688
 r_34: + xp_19_1 + xp_2_3 <= 26.5090230242688
 r_35: 0 xp_0_0 <= 27.3778920308483
 r_36: + xp_9_0 <= 27.3778920308483
 r_37: + xp_13_1 + xp_8_1 + xp_0_4 <= 26.2815479528884
 r_38: + xp_23_5 + xp_1_1 <= 27.941473259334
 r_39: + xp_3_2 + xp_0_3 <= 27.1553784860558
 r_40: + xp_0_1 <= 25.5951933909125
 r_41: + xp_12_0 + xp_2_4 <= 26.2815479528884
 r_42: + xp_21_4 <= 26.2815479528884
 r_43: + xp_16_0 <= 26.2815479528884
 r_44: + xp_23_4 + xp_23_3 + xp_23_2 + xp_23_1 + xp_16_1 + xp_1_2
 <= 27.941473259334
 r_45: + xp_17_4 + xp_17_3 + xp_3_1 <= 27.1553784860558
 r_46: + xp_18_2 + xp_0_5 + xp_0_4 <= 25.5951933909125
 r_47: + xp_16_1 + xp_13_1 <= 27.941473259334
 r_48: + xp_13_0 <= 27.941473259334
 r_49: + xp_17_2 <= 27.1553784860558
 r_50: 0 xp_0_0 <= 25.5951933909125
 r_51: + xp_8_1 + xp_1_1 <= 27.1553784860558
 r_52: + xp_8_0 + xp_1_2 <= 27.1553784860558
 r_53: + xp_1_0 <= 27.1553784860558
 r_54: + xp_0_3 <= 25.5951933909125
 r_55: 0 xp_0_0 <= 27.1553784860558
 r_56: 0 xp_0_0 <= 27.1553784860558
 r_57: + xp_23_5 + xp_22_1 <= 25.5951933909125
 r_58: + xp_23_3 + xp_22_3 + xp_17_3 + xp_5_0 <= 25.5951933909125
 r_59: + xp_22_0 <= 25.5951933909125
 r_60: + xp_23_1 + xp_17_4 + xp_6_0 <= 25.5951933909125
 r_61: + xp_23_0 + xp_17_2 <= 25.5951933909125
 r_62: + xp_17_0 <= 25.5951933909125
 r_63: + xp_23_4 + xp_17_1 + xp_11_3 + xp_6_1 + xp_5_2
 <= 25.5951933909125
 r_64: + xp_23_2 + xp_22_2 + xp_17_5 + xp_5_1 <= 25.5951933909125
 r_65: + xp_20_1 + xp_19_3 + xp_14_1 + xp_11_4 + xp_7_1 + xp_2_1
 + xp_0_5 <= 27.941473259334
 r_66: + xp_21_2 + xp_20_2 + xp_7_0 <= 27.941473259334
 r_67: + xp_19_2 + xp_10_0 <= 27.941473259334
 r_68: + xp_20_0 <= 27.941473259334

Bounds
 0 <= xp_0_0 <= 25.0575226754919
 0 <= xp_0_1 <= 12.528761337746
 0 <= xp_0_2 <= 4.17625377924865
 0 <= xp_0_3 <= 8.35250755849731
 0 <= xp_0_4 <= 4.17625377924865
 0 <= xp_0_5 <= 4.17625377924865
 0 <= xp_1_0 <= 18.3867820732636
 0 <= xp_1_1 <= 14.2105282940149
 0 <= xp_1_2 <= 0.560588985422995
 0 <= xp_2_0 <= 21.8702559062147
 0 <= xp_2_1 <= 0.494493504985716
 0 <= xp_2_2 <= 4.17625377924865
 0 <= xp_2_3 <= 5.16524078922009
 0 <= xp_2_4 <= 0.988987009971432
 0 <= xp_3_0 <= 20.8812688962433
 0 <= xp_3_1 <= 4.17625377924865
 0 <= xp_3_2 <= 4.17625377924865
 0 <= xp_4_0 <= 24.6756460299174
 0 <= xp_5_0 <= 14.1003691599528
 0 <= xp_5_1 <= 7.05018457997641
 0 <= xp_5_2 <= 3.5250922899882
 0 <= xp_6_0 <= 19.0354983659363
 0 <= xp_6_1 <= 3.17258306098938
 0 <= xp_7_0 <= 15.2019605005741
 0 <= xp_7_1 <= 6.08078420022965
 0 <= xp_8_0 <= 16.3916791484451
 0 <= xp_8_1 <= 2.73194652474086
 0 <= xp_9_0 <= 17.7356205840032
 0 <= xp_10_0 <= 17.7356205840032
 0 <= xp_11_0 <= 24.7246000767178
 0 <= xp_11_1 <= 16.0391699194463
 0 <= xp_11_2 <= 3.84333118047451
 0 <= xp_11_3 <= 7.68666236094902
 0 <= xp_11_4 <= 3.84333118047451
 0 <= xp_12_0 <= 16.6560610701943
 0 <= xp_13_0 <= 13.8800508918286
 0 <= xp_13_1 <= 2.31334181530476
 0 <= xp_14_0 <= 13.2190960874558
 0 <= xp_14_1 <= 2.20318268124263
 0 <= xp_15_0 <= 15.2680559810114
 0 <= xp_16_0 <= 12.558141283083
 0 <= xp_16_1 <= 2.0930235471805
 0 <= xp_17_0 <= 27.0061167500978
 0 <= xp_17_1 <= 1.94859407460585
 0 <= xp_17_2 <= 3.8971881492117
 0 <= xp_17_3 <= 1.94859407460585
 0 <= xp_17_4 <= 4.17625377924865
 0 <= xp_17_5 <= 3.8971881492117
 0 <= xp_18_0 <= 20.9498221020296
 0 <= xp_18_1 <= 10.036719711354
 0 <= xp_18_2 <= 1.68421215285673
 0 <= xp_18_3 <= 8.35250755849731
 0 <= xp_19_0 <= 25.7356189135016
 0 <= xp_19_1 <= 7.41248712408757
 0 <= xp_19_2 <= 5.79437045166811
 0 <= xp_19_3 <= 1.61811667241946
 0 <= xp_20_0 <= 28.0734377522066
 0 <= xp_20_1 <= 7.1921688559633
 0 <= xp_20_2 <= 4.52387261507197
 0 <= xp_21_0 <= 20.5018374472565
 0 <= xp_21_1 <= 5.44186122266929
 0 <= xp_21_2 <= 5.44186122266929
 0 <= xp_21_3 <= 1.26560744342064
 0 <= xp_21_4 <= 5.44186122266929
 0 <= xp_22_0 <= 27.1481010260847
 0 <= xp_22_1 <= 1.04528917529637
 0 <= xp_22_2 <= 2.09057835059274
 0 <= xp_22_3 <= 6.2668321298414
 0 <= xp_23_0 <= 26.1028118507883
 0 <= xp_23_1 <= 2.09057835059274
 0 <= xp_23_2 <= 1.04528917529637
 0 <= xp_23_3 <= 1.04528917529637
 0 <= xp_23_4 <= 5.22154295454503
 0 <= xp_23_5 <= 1.04528917529637

End
